n = 10; 

m=12; 


9	43	91	26	3	75	99	63	83	70
71	32	48	42	99	7	54	8	73	30
2	44	89	6	3	1	43	81	57	76
53	28	88	10	32	38	25	24	90	7
71	32	48	42	99	7	54	8	73	30
63	29	11	6	31	63	36	39	57	47
87	16	2	18	75	39	77	69	15	78
67	91	88	23	91	71	3	26	41	96
86	25	39	76	24	38	5	91	29	22
10	79	93	2	87	17	18	10	50	8
2	44	89	6	3	1	43	81	57	76
71	32	48	42	99	7	54	8	73	30
